(set-info :source |printed by MathSAT|)
(declare-fun call_Age.flby () Int)
(declare-fun env.next () Bool)
(declare-fun call_Age2.flby () Int)
(declare-fun call_Age2.age_of_p.next () Int)
(declare-fun call_Age3.flby.next () Int)
(declare-fun k.next () Int)
(declare-fun k () Int)
(declare-fun call_Age.age_of_p.next () Int)
(declare-fun call_Age2.age_of_p () Int)
(declare-fun param_t.next () Bool)
(declare-fun param_q () Bool)
(declare-fun param_q.next () Bool)
(declare-fun call_Age2.flby.next () Int)
(declare-fun call_Age.age_of_p () Int)
(declare-fun env () Bool)
(declare-fun param_t () Bool)
(declare-fun call_Age3.flby () Int)
(declare-fun call_Age.flby.next () Int)
(declare-fun call_Sofar.flby () Bool)
(declare-fun call_Age3.ite.next () Int)
(declare-fun call_Sofar.Sofar () Bool)
(declare-fun flby.next () Int)
(declare-fun param_p () Bool)
(declare-fun call_Age3.age_of_p () Int)
(declare-fun call_Sofar.flby.next () Bool)
(declare-fun flby () Int)
(declare-fun call_Age.ite.next () Int)
(declare-fun _OK_ () Bool)
(declare-fun call_Age2.ite.next () Int)
(declare-fun call_Age3.age_of_p.next () Int)
(declare-fun param_r () Bool)
(declare-fun _OK_.next () Bool)
(declare-fun call_Sofar.Sofar.next () Bool)
(define-fun .def_289 () Bool (= call_Age3.flby.next call_Age3.age_of_p.next))
(define-fun .def_287 () Bool (= call_Sofar.flby.next call_Sofar.Sofar.next))
(define-fun .def_285 () Bool (= call_Age2.flby.next call_Age2.age_of_p.next))
(define-fun .def_283 () Bool (= call_Age.flby.next call_Age.age_of_p.next))
(define-fun .def_281 () Bool (= env.next call_Sofar.Sofar.next))
(define-fun .def_278 () Bool (= flby.next k.next))
(define-fun .def_274 () Bool (and param_t.next param_q.next))
(define-fun .def_272 () Bool (<= k.next call_Age3.age_of_p.next))
(define-fun .def_273 () Bool (not .def_272))
(define-fun .def_275 () Bool (or .def_273 .def_274))
(define-fun .def_270 () Bool (not env.next))
(define-fun .def_276 () Bool (or .def_270 .def_275))
(define-fun .def_277 () Bool (= _OK_.next .def_276))
(define-fun .def_279 () Bool (and .def_277 .def_278))
(define-fun .def_282 () Bool (and .def_279 .def_281))
(define-fun .def_284 () Bool (and .def_282 .def_283))
(define-fun .def_286 () Bool (and .def_284 .def_285))
(define-fun .def_288 () Bool (and .def_286 .def_287))
(define-fun .def_290 () Bool (and .def_288 .def_289))
(define-fun .def_203 () Bool (= call_Age3.flby call_Age3.age_of_p))
(define-fun .def_201 () Bool (= call_Sofar.flby call_Sofar.Sofar))
(define-fun .def_199 () Bool (= call_Age2.age_of_p call_Age2.flby))
(define-fun .def_197 () Bool (= call_Age.age_of_p call_Age.flby))
(define-fun .def_195 () Bool (= env call_Sofar.Sofar))
(define-fun .def_192 () Bool (= k flby))
(define-fun .def_188 () Bool (and param_t param_q))
(define-fun .def_186 () Bool (<= k call_Age3.age_of_p))
(define-fun .def_187 () Bool (not .def_186))
(define-fun .def_189 () Bool (or .def_187 .def_188))
(define-fun .def_184 () Bool (not env))
(define-fun .def_190 () Bool (or .def_184 .def_189))
(define-fun .def_191 () Bool (= _OK_ .def_190))
(define-fun .def_193 () Bool (and .def_191 .def_192))
(define-fun .def_196 () Bool (and .def_193 .def_195))
(define-fun .def_198 () Bool (and .def_196 .def_197))
(define-fun .def_200 () Bool (and .def_198 .def_199))
(define-fun .def_202 () Bool (and .def_200 .def_201))
(define-fun .def_204 () Bool (and .def_202 .def_203))
(define-fun .def_291 () Bool (and .def_204 .def_290))
(define-fun .def_266 () Bool (= call_Age3.ite.next call_Age3.flby.next))
(define-fun .def_258 () Bool (<= 1 k.next))
(define-fun .def_254 () Bool (<= k.next call_Age.age_of_p.next))
(define-fun .def_255 () Bool (not .def_254))
(define-fun .def_257 () Bool (or .def_255 param_q.next))
(define-fun .def_259 () Bool (and .def_257 .def_258))
(define-fun .def_249 () Bool (<= k.next call_Age2.age_of_p.next))
(define-fun .def_250 () Bool (not .def_249))
(define-fun .def_252 () Bool (or .def_250 param_t.next))
(define-fun .def_260 () Bool (and .def_252 .def_259))
(define-fun .def_261 () Bool (and call_Sofar.Sofar .def_260))
(define-fun .def_263 () Bool (= .def_261 call_Sofar.flby.next))
(define-fun .def_245 () Bool (= call_Age2.ite.next call_Age2.flby.next))
(define-fun .def_242 () Bool (= call_Age.ite.next call_Age.flby.next))
(define-fun .def_237 () Bool (not param_r))
(define-fun .def_234 () Int (* (- 1) call_Age2.ite.next))
(define-fun .def_235 () Int (+ call_Age2.age_of_p .def_234))
(define-fun .def_236 () Bool (= .def_235 2))
(define-fun .def_238 () Bool (or .def_236 .def_237))
(define-fun .def_232 () Bool (= call_Age2.ite.next 0))
(define-fun .def_233 () Bool (or param_r .def_232))
(define-fun .def_239 () Bool (and .def_233 .def_238))
(define-fun .def_229 () Bool (= k flby.next))
(define-fun .def_225 () Bool (= call_Age3.ite.next 0))
(define-fun .def_221 () Bool (and param_p param_r))
(define-fun .def_226 () Bool (or .def_221 .def_225))
(define-fun .def_222 () Bool (not .def_221))
(define-fun .def_217 () Int (* (- 1) call_Age3.ite.next))
(define-fun .def_218 () Int (+ call_Age3.age_of_p .def_217))
(define-fun .def_219 () Bool (= .def_218 2))
(define-fun .def_223 () Bool (or .def_219 .def_222))
(define-fun .def_213 () Bool (not param_p))
(define-fun .def_210 () Int (* (- 1) call_Age.ite.next))
(define-fun .def_211 () Int (+ call_Age.age_of_p .def_210))
(define-fun .def_212 () Bool (= .def_211 2))
(define-fun .def_214 () Bool (or .def_212 .def_213))
(define-fun .def_207 () Bool (= call_Age.ite.next 0))
(define-fun .def_209 () Bool (or .def_207 param_p))
(define-fun .def_215 () Bool (and .def_209 .def_214))
(define-fun .def_224 () Bool (and .def_215 .def_223))
(define-fun .def_227 () Bool (and .def_224 .def_226))
(define-fun .def_230 () Bool (and .def_227 .def_229))
(define-fun .def_240 () Bool (and .def_230 .def_239))
(define-fun .def_243 () Bool (and .def_240 .def_242))
(define-fun .def_246 () Bool (and .def_243 .def_245))
(define-fun .def_264 () Bool (and .def_246 .def_263))
(define-fun .def_267 () Bool (and .def_264 .def_266))
(define-fun .def_292 () Bool (and .def_267 .def_291))
(assert .def_292)
